NAME: concorde91
TYPE: TSP
DIMENSION: 25 
EDGE_WEIGHT_TYPE: EUC_2D
NODE_COORD_SECTION
1 31 17
2 26 77
3 55 89
4 5 55
5 47 28
6 48 49
7 82 93
8 37 35
9 55 96
10 17 70
11 63 89
12 89 18
13 28 63
14 40 99
15 77 13
16 67 33
17 20 87
18 36 78
19 36 83
20 69 60
21 54 49
22 71 78
23 54 89
24 75 20
25 42 31
